[VALIDATOR STDOUT]
Checking plan: /home/jfan5/Safety-gen/runs/benchmark/optic/ferry_20260205_113042/ferry/optic_results/ferry-l22-c12-s22001.plan
Plan executed successfully - checking goal
Plan valid
Final value: 58 

Successful plans:
Value: 58
 /home/jfan5/Safety-gen/runs/benchmark/optic/ferry_20260205_113042/ferry/optic_results/ferry-l22-c12-s22001.plan 58
